(assert (forall ((pkt_0_6_8_0  Int  )(pkt_1_7_9_0  Int  )(state_group_0_state_0_8_a_0  Int  )(state_group_1_state_0_9_b_0  Int  )(state_group_2_state_0_a_c_0  Int  )) (let ((_n0 30 ))
(let ((_n1 pkt_0_6_8_0 ))
(let ((_n2 (=   _n1   _n0 ) ))
(let ((_n3 (not  _n2 ) ))
(let ((_n5 pkt_1_7_9_0 ))
(let ((_n6 (<   _n5   _n0 ) ))
(let ((_n7 state_group_1_state_0_9_b_0 ))
(let ((_n8 (+   _n7   _n5 ) ))
(let ((_n9 (ite  _n6   _n8   _n7  ) ))
(let ((_n10 (-  _n5 )))
(let ((_n11 3 ))
(let ((_n12 (+   _n11   _n10 ) ))
(let ((_n13 false ))
(let ((_n14 (+   _n5   _n0 ) ))
(let ((_n15 (ite (=  _n10  (- 3))  _n14   (ite  _n13  1 0)  ) ))
(let ((_n16 (ite (=  _n10  (- 3))  _n15   _n12  ) ))
(let ((_n17 (<   (ite  _n13  1 0)   _n16 ) ))
(let ((_n18 (ite  _n17   _n5   (ite  _n13  1 0)  ) ))
(let ((_n19 (+   _n7   _n18 ) ))
(let ((_n20 (ite (=  (ite  _n17  1 0)  1)  _n19   _n7  ) ))
(let ((_n21 (=   _n20   _n9 ) ))
(let ((_n23 state_group_2_state_0_a_c_0 ))
(let ((_n24 true ))
(let ((_n25 (+   _n23   (ite  _n24  1 0) ) ))
(let ((_n26 (ite  _n6   _n25   _n23  ) ))
(let ((_n27 (+   _n23   (ite  _n17  1 0) ) ))
(let ((_n28 (ite (=  (ite  _n17  1 0)  1)  _n27   _n23  ) ))
(let ((_n29 (=   _n28   _n26 ) ))
(let ((_n31 (ite (=  _n1  0)  _n5   (ite  _n13  1 0)  ) ))
(let ((_n32 (ite (=  _n1  0)  _n31   _n5  ) ))
(let ((_n33 (=   _n32   _n5 ) ))
(let ((_n35 state_group_0_state_0_8_a_0 ))
(implies  (and (and (>= state_group_2_state_0_a_c_0 0) (< state_group_2_state_0_a_c_0 1024 ))  (and (and (>= state_group_1_state_0_9_b_0 0) (< state_group_1_state_0_9_b_0 1024 ))  (and (and (>= state_group_0_state_0_8_a_0 0) (< state_group_0_state_0_8_a_0 1024 ))  (and (and (>= pkt_1_7_9_0 0) (< pkt_1_7_9_0 1024 ))  (and (>= pkt_0_6_8_0 0) (< pkt_0_6_8_0 1024 )) ) ) ) )   (and  _n3  _n21  _n29  _n33 )  )))))))))))))))))))))))))))))))))))
(check-sat)
(get-model)
(exit)